<?xml version = "1.0" standalone="yes"?>
<!-- This file has been generated by DOcplex version 2.23.222  -->
<CPLEXSolution version="1.0">
 <header
   problemName="CVRP"
   objectiveValue="14909.3"
  />
 <variables>
  <variable name="x_0_2" index="1" value="1.00000"/>
  <variable name="x_0_4" index="3" value="1.00000"/>
  <variable name="x_0_5" index="4" value="1.00000"/>
  <variable name="x_0_8" index="7" value="1.00000"/>
  <variable name="x_0_11" index="10" value="1.00000"/>
  <variable name="x_0_14" index="13" value="1.00000"/>
  <variable name="x_0_15" index="14" value="1.00000"/>
  <variable name="x_0_16" index="15" value="1.00000"/>
  <variable name="x_0_17" index="16" value="1.00000"/>
  <variable name="x_0_18" index="17" value="1.00000"/>
  <variable name="x_0_19" index="18" value="1.00000"/>
  <variable name="x_1_0" index="20" value="1.00000"/>
  <variable name="x_2_0" index="40" value="1.00000"/>
  <variable name="x_3_0" index="60" value="1.00000"/>
  <variable name="x_4_0" index="80" value="1.00000"/>
  <variable name="x_5_0" index="100" value="1.00000"/>
  <variable name="x_6_7" index="126" value="1.00000"/>
  <variable name="x_7_12" index="151" value="1.00000"/>
  <variable name="x_8_0" index="160" value="1.00000"/>
  <variable name="x_9_0" index="180" value="1.00000"/>
  <variable name="x_10_0" index="200" value="1.00000"/>
  <variable name="x_11_0" index="220" value="1.00000"/>
  <variable name="x_12_3" index="243" value="1.00000"/>
  <variable name="x_13_0" index="260" value="1.00000"/>
  <variable name="x_14_6" index="286" value="1.00000"/>
  <variable name="x_15_9" index="309" value="1.00000"/>
  <variable name="x_16_20" index="339" value="1.00000"/>
  <variable name="x_17_1" index="341" value="1.00000"/>
  <variable name="x_18_10" index="370" value="1.00000"/>
  <variable name="x_19_13" index="393" value="1.00000"/>
  <variable name="x_20_0" index="400" value="1.00000"/>
  <variable name="u_1" index="420" value="73.00000"/>
  <variable name="u_2" index="421" value="73.00000"/>
  <variable name="u_3" index="422" value="73.00000"/>
  <variable name="u_4" index="423" value="69.00000"/>
  <variable name="u_5" index="424" value="73.00000"/>
  <variable name="u_6" index="425" value="28.00000"/>
  <variable name="u_7" index="426" value="47.00000"/>
  <variable name="u_8" index="427" value="73.00000"/>
  <variable name="u_9" index="428" value="73.00000"/>
  <variable name="u_10" index="429" value="66.00000"/>
  <variable name="u_11" index="430" value="72.00000"/>
  <variable name="u_12" index="431" value="59.00000"/>
  <variable name="u_13" index="432" value="73.00000"/>
  <variable name="u_14" index="433" value="8.00000"/>
  <variable name="u_15" index="434" value="51.00000"/>
  <variable name="u_16" index="435" value="11.00000"/>
  <variable name="u_17" index="436" value="60.00000"/>
  <variable name="u_18" index="437" value="5.00000"/>
  <variable name="u_19" index="438" value="67.00000"/>
  <variable name="u_20" index="439" value="69.00000"/>
 </variables>
</CPLEXSolution>
